(set-info :smt-lib-version 2.6)
(set-logic AUFBVDTNIRA)
(set-info :source |
Generated by: Yannick Moy
Generated on: 2022-02-14
Generator: GNATprove
Application: GNAT light runtime library
Target solver: Alt-Ergo, CVC4, Z3
|)
(set-info :license "https://creativecommons.org/licenses/by/4.0/")
(set-info :category "industrial")
(set-info :status unsat)

;;; generated by SMT-LIB2 driver
;;; SMT-LIB2 driver: bit-vectors, common part
;;; SMT-LIB2: integer arithmetic
(declare-sort string 0)

(declare-datatypes ((tuple0 0))
  (((Tuple0))))

(declare-sort us_private 0)

;; private__bool_eq
(declare-fun private__bool_eq (us_private
  us_private) Bool)

(declare-const us_null_ext__ us_private)

(declare-sort us_type_of_heap 0)

(declare-datatypes ((us_type_of_heap__ref 0))
  (((us_type_of_heap__refqtmk (us_type_of_heap__content us_type_of_heap)))))

(declare-sort us_image 0)

(declare-datatypes ((int__ref 0))
  (((int__refqtmk (int__content Int)))))

(declare-datatypes ((bool__ref 0))
  (((bool__refqtmk (bool__content Bool)))))

(declare-datatypes ((us_fixed__ref 0))
  (((us_fixed__refqtmk (us_fixed__content Int)))))

(declare-datatypes ((real__ref 0))
  (((real__refqtmk (real__content Real)))))

(declare-datatypes ((us_private__ref 0))
  (((us_private__refqtmk (us_private__content us_private)))))

;; int__ref___projection
(define-fun int__ref___projection ((a int__ref)) Int
  (int__content a))

;; __fixed__ref___projection
(define-fun us_fixed__ref___projection ((a us_fixed__ref)) Int
  (us_fixed__content a))

;; bool__ref___projection
(define-fun bool__ref___projection ((a bool__ref)) Bool
  (bool__content a))

;; real__ref___projection
(define-fun real__ref___projection ((a real__ref)) Real
  (real__content a))

;; __private__ref___projection
(define-fun us_private__ref___projection ((a us_private__ref)) us_private
  (us_private__content a))

;; nth
(declare-fun nth ((_ BitVec 128)
  Int) Bool)

;; lsr
(declare-fun lsr ((_ BitVec 128)
  Int) (_ BitVec 128))

;; asr
(declare-fun asr ((_ BitVec 128)
  Int) (_ BitVec 128))

;; lsl
(declare-fun lsl ((_ BitVec 128)
  Int) (_ BitVec 128))

;; abs
(define-fun abs1 ((x Int)) Int
  (ite (<= 0 x) x (- x)))

;; Abs_le
(assert
  (forall ((x Int) (y Int)) (= (<= (abs1 x) y) (and (<= (- y) x) (<= x y)))))

;; Abs_pos
(assert (forall ((x Int)) (<= 0 (abs1 x))))

;; Div_unique
(assert
  (forall ((x Int) (y Int) (q Int))
    (=>
      (< 0 y)
      (=> (and (<= (* q y) x) (< x (+ (* q y) y))) (= (div x y) q)))))

;; Div_bound
(assert
  (forall ((x Int) (y Int))
    (=> (and (<= 0 x) (< 0 y)) (and (<= 0 (div x y)) (<= (div x y) x)))))

;; Div_inf
(assert
  (forall ((x Int) (y Int)) (=> (and (<= 0 x) (< x y)) (= (div x y) 0))))

;; Div_inf_neg
(assert
  (forall ((x Int) (y Int))
    (=> (and (< 0 x) (<= x y)) (= (div (- x) y) (- 1)))))

;; Mod_0
(assert (forall ((y Int)) (=> (not (= y 0)) (= (mod 0 y) 0))))

;; Div_1_left
(assert (forall ((y Int)) (=> (< 1 y) (= (div 1 y) 0))))

;; Div_minus1_left
(assert (forall ((y Int)) (=> (< 1 y) (= (div (- 1) y) (- 1)))))

;; Mod_1_left
(assert (forall ((y Int)) (=> (< 1 y) (= (mod 1 y) 1))))

;; Mod_minus1_left
(assert
  (forall ((y Int))
    (! (=> (< 1 y) (= (mod (- 1) y) (- y 1))) :pattern ((mod (- 1) y)) )))

;; Div_mult
(assert
  (forall ((x Int) (y Int) (z Int))
    (! (=> (< 0 x) (= (div (+ (* x y) z) x) (+ y (div z x)))) :pattern ((div (+ (* x y) z) x)) )))

;; Mod_mult
(assert
  (forall ((x Int) (y Int) (z Int))
    (! (=> (< 0 x) (= (mod (+ (* x y) z) x) (mod z x))) :pattern ((mod (+ (* x y) z) x)) )))

;; rotate_right
(declare-fun rotate_right1 ((_ BitVec 128)
  Int) (_ BitVec 128))

;; rotate_left
(declare-fun rotate_left1 ((_ BitVec 128)
  Int) (_ BitVec 128))

;; pow2
(declare-fun pow2 (Int) Int)

(declare-const two_power_size_minus_one Int)

;; two_power_size_minus_one_val
(assert (= two_power_size_minus_one (pow2 (- 128 1))))

;; to_int
(define-fun to_int1 ((x (_ BitVec 128))) Int
  (ite (bvsge x (_ bv0 128))
    (bv2nat x)
    (- (- 340282366920938463463374607431768211456 (bv2nat x)))))

;; uint_in_range
(define-fun uint_in_range ((i Int)) Bool
  (and (<= 0 i) (<= i 340282366920938463463374607431768211455)))

;; lsr_bv_is_lsr
(assert
  (forall ((x (_ BitVec 128)) (n (_ BitVec 128)))
    (= (bvlshr x n) (lsr x (bv2nat n)))))

;; asr_bv_is_asr
(assert
  (forall ((x (_ BitVec 128)) (n (_ BitVec 128)))
    (= (bvashr x n) (asr x (bv2nat n)))))

;; lsl_bv_is_lsl
(assert
  (forall ((x (_ BitVec 128)) (n (_ BitVec 128)))
    (= (bvshl x n) (lsl x (bv2nat n)))))

;; rotate_left_bv_is_rotate_left
(assert
  (forall ((v (_ BitVec 128)) (n (_ BitVec 128)))
    (= (bvor (bvshl v (bvurem n (_ bv128 128))) (bvlshr v (bvsub (_ bv128 128) (bvurem n (_ bv128 128))))) 
    (rotate_left1
      v
      (bv2nat n)))))

;; rotate_right_bv_is_rotate_right
(assert
  (forall ((v (_ BitVec 128)) (n (_ BitVec 128)))
    (= (bvor (bvlshr v (bvurem n (_ bv128 128))) (bvshl v (bvsub (_ bv128 128) (bvurem n (_ bv128 128))))) 
    (rotate_right1
      v
      (bv2nat n)))))

;; nth_bv
(declare-fun nth_bv ((_ BitVec 128)
  (_ BitVec 128)) Bool)

;; nth_bv_def
(assert
  (forall ((x (_ BitVec 128)) (i (_ BitVec 128)))
    (=
      (= (nth_bv x i) true)
      (not
        (= (bvand (bvlshr x i) #x00000000000000000000000000000001) #x00000000000000000000000000000000)))))

;; Nth_bv_is_nth
(assert
  (forall ((x (_ BitVec 128)) (i (_ BitVec 128)))
    (= (nth x (bv2nat i)) (nth_bv x i))))

;; Nth_bv_is_nth2
(assert
  (forall ((x (_ BitVec 128)) (i Int))
    (=>
      (and (<= 0 i) (< i 340282366920938463463374607431768211456))
      (= (nth_bv x ((_ int2bv 128) i)) (nth x i)))))

;; eq_sub_bv
(declare-fun eq_sub_bv ((_ BitVec 128)
  (_ BitVec 128)
  (_ BitVec 128)
  (_ BitVec 128)) Bool)

;; eq_sub_bv_def
(assert
  (forall ((a (_ BitVec 128)) (b (_ BitVec 128)) (i (_ BitVec 128)) (n (_ BitVec 128)))
    (let ((mask (bvshl (bvsub (bvshl #x00000000000000000000000000000001 n) #x00000000000000000000000000000001) i)))
      (= (eq_sub_bv a b i n) (= (bvand b mask) (bvand a mask))))))

;; eq_sub
(define-fun eq_sub ((a (_ BitVec 128)) (b (_ BitVec 128)) (i Int) (n Int)) Bool
  (forall ((j Int))
    (=> (and (<= i j) (< j (+ i n))) (= (nth a j) (nth b j)))))

;; eq_sub_equiv
(assert
  (forall ((a (_ BitVec 128)) (b (_ BitVec 128)) (i (_ BitVec 128)) (n (_ BitVec 128)))
    (= (eq_sub a b (bv2nat i) (bv2nat n)) (eq_sub_bv a b i n))))

(declare-datatypes ((t__ref 0))
  (((t__refqtmk (t__content (_ BitVec 128))))))

;; bool_eq
(define-fun bool_eq ((x (_ BitVec 128)) (y (_ BitVec 128))) Bool
  (ite (= x y) true false))

;; bool_ne
(define-fun bool_ne ((x (_ BitVec 128)) (y (_ BitVec 128))) Bool
  (ite (not (= x y)) true false))

;; bool_lt
(define-fun bool_lt ((x (_ BitVec 128)) (y (_ BitVec 128))) Bool
  (ite (bvult x y) true false))

;; bool_le
(define-fun bool_le ((x (_ BitVec 128)) (y (_ BitVec 128))) Bool
  (ite (bvule x y) true false))

;; bool_gt
(define-fun bool_gt ((x (_ BitVec 128)) (y (_ BitVec 128))) Bool
  (ite (bvugt x y) true false))

;; bool_ge
(define-fun bool_ge ((x (_ BitVec 128)) (y (_ BitVec 128))) Bool
  (ite (bvuge x y) true false))

;; power
(declare-fun power ((_ BitVec 128)
  Int) (_ BitVec 128))

;; Power_0
(assert
  (forall ((x (_ BitVec 128)))
    (= (power x 0) #x00000000000000000000000000000001)))

;; Power_1
(assert (forall ((x (_ BitVec 128))) (= (power x 1) x)))

;; Power_s
(assert
  (forall ((x (_ BitVec 128)) (n Int))
    (=> (<= 0 n) (= (power x (+ n 1)) (bvmul x (power x n))))))

;; Power_s_alt
(assert
  (forall ((x (_ BitVec 128)) (n Int))
    (=> (< 0 n) (= (power x n) (bvmul x (power x (- n 1)))))))

;; Power_sum
(assert
  (forall ((x (_ BitVec 128)) (n Int) (m Int))
    (=>
      (<= 0 n)
      (=> (<= 0 m) (= (power x (+ n m)) (bvmul (power x n) (power x m)))))))

;; Power_mult
(assert
  (forall ((x (_ BitVec 128)) (n Int) (m Int))
    (=> (<= 0 n) (=> (<= 0 m) (= (power x (* n m)) (power (power x n) m))))))

;; Power_mult2
(assert
  (forall ((x (_ BitVec 128)) (y (_ BitVec 128)) (n Int))
    (=> (<= 0 n) (= (power (bvmul x y) n) (bvmul (power x n) (power y n))))))

;; bv_min
(define-fun bv_min ((x (_ BitVec 128)) (y (_ BitVec 128))) (_ BitVec 128)
  (ite (bvule x y) x y))

;; bv_max
(define-fun bv_max ((x (_ BitVec 128)) (y (_ BitVec 128))) (_ BitVec 128)
  (ite (bvule x y) y x))

;; min
(define-fun min ((x Int) (y Int)) Int
  (ite (<= x y) x y))

;; max
(define-fun max ((x Int) (y Int)) Int
  (ite (<= x y) y x))

;; Min_r
(assert (forall ((x Int) (y Int)) (=> (<= y x) (= (min x y) y))))

;; Max_l
(assert (forall ((x Int) (y Int)) (=> (<= y x) (= (max x y) x))))

;; Min_comm
(assert (forall ((x Int) (y Int)) (= (min x y) (min y x))))

;; Max_comm
(assert (forall ((x Int) (y Int)) (= (max x y) (max y x))))

;; Min_assoc
(assert
  (forall ((x Int) (y Int) (z Int)) (= (min (min x y) z) (min x (min y z)))))

;; Max_assoc
(assert
  (forall ((x Int) (y Int) (z Int)) (= (max (max x y) z) (max x (max y z)))))

;; bv_min_to_uint
(assert
  (forall ((x (_ BitVec 128)) (y (_ BitVec 128)))
    (= (bv2nat (bv_min x y)) (min (bv2nat x) (bv2nat y)))))

;; bv_max_to_uint
(assert
  (forall ((x (_ BitVec 128)) (y (_ BitVec 128)))
    (= (bv2nat (bv_max x y)) (max (bv2nat x) (bv2nat y)))))

;; uc_of_int
(define-fun uc_of_int ((x Int)) (_ BitVec 128)
  (ite (<= 0 x) ((_ int2bv 128) x) (bvneg ((_ int2bv 128) (- x)))))

;; uc_to_int
(define-fun uc_to_int ((x (_ BitVec 128))) Int
  (ite (= (bool_lt x ((_ int2bv 128) two_power_size_minus_one)) true)
    (bv2nat x)
    (- (bv2nat (bvneg x)))))

;; bool_eq
(declare-fun bool_eq1 (Int
  Int) Bool)

(declare-const value__size Int)

(declare-const object__size Int)

(declare-const alignment Int)

;; value__size_axiom
(assert (<= 0 value__size))

;; object__size_axiom
(assert (<= 0 object__size))

;; alignment_axiom
(assert (<= 0 alignment))

;; user_eq
(declare-fun user_eq (Int
  Int) Bool)

(declare-const dummy Int)

(declare-datatypes ((big_integer__ref 0))
  (((big_integer__refqtmk (big_integer__content Int)))))

;; big_integer__ref_big_integer__content__projection
(define-fun big_integer__ref_big_integer__content__projection ((a big_integer__ref)) Int
  (big_integer__content a))

(declare-datatypes ((valid_big_integer__ref 0))
  (((valid_big_integer__refqtmk (valid_big_integer__content Int)))))

;; valid_big_integer__ref_valid_big_integer__content__projection
(define-fun valid_big_integer__ref_valid_big_integer__content__projection 
  ((a valid_big_integer__ref)) Int
  (valid_big_integer__content a))

;; big
(declare-fun big (Int) Int)

;; big__function_guard
(declare-fun big__function_guard (Int
  Int) Bool)

(declare-sort int128 0)

;; int128'int
(declare-fun int128qtint (int128) Int)

;; int128'axiom
(assert
  (forall ((i int128))
    (and
      (<= (- 170141183460469231731687303715884105728) (int128qtint i))
      (<= (int128qtint i) 170141183460469231731687303715884105727))))

;; in_range
(define-fun in_range ((x Int)) Bool
  (and
    (<= (- 170141183460469231731687303715884105728) x)
    (<= x 170141183460469231731687303715884105727)))

;; bool_eq
(define-fun bool_eq2 ((x Int) (y Int)) Bool
  (ite (= x y) true false))

;; attr__ATTRIBUTE_IMAGE
(declare-fun attr__ATTRIBUTE_IMAGE (Int) us_image)

;; attr__ATTRIBUTE_VALUE__pre_check
(declare-fun attr__ATTRIBUTE_VALUE__pre_check (us_image) Bool)

;; attr__ATTRIBUTE_VALUE
(declare-fun attr__ATTRIBUTE_VALUE (us_image) Int)

;; user_eq
(declare-fun user_eq1 (int128
  int128) Bool)

(declare-const dummy1 int128)

(declare-datatypes ((int128__ref 0))
  (((int128__refqtmk (int128__content int128)))))

;; int128__ref_int128__content__projection
(define-fun int128__ref_int128__content__projection ((a int128__ref)) int128
  (int128__content a))

;; dynamic_invariant
(define-fun dynamic_invariant ((temp___expr_235 Int) (temp___is_init_231 Bool) (temp___skip_constant_232 Bool) (temp___do_toplevel_233 Bool) (temp___do_typ_inv_234 Bool)) Bool
  (=>
    (or
      (= temp___is_init_231 true)
      (<= (- 170141183460469231731687303715884105728) 170141183460469231731687303715884105727))
    (in_range temp___expr_235)))

;; big__post_axiom
(assert true)

;; big__def_axiom
(assert
  (forall ((arg Int))
    (! (=> (dynamic_invariant arg true true true true) (= (big arg) arg)) :pattern (
    (big
      arg)) )))

;; in_double_int_range
(declare-fun in_double_int_range (Int) Bool)

;; in_double_int_range__function_guard
(declare-fun in_double_int_range__function_guard (Bool
  Int) Bool)

;; in_range
(declare-fun in_range1 (Int
  Int
  Int) Bool)

;; in_range__function_guard
(declare-fun in_range__function_guard (Bool
  Int
  Int
  Int) Bool)

;; in_double_int_range__post_axiom
(assert true)

;; in_double_int_range__def_axiom
(assert
  (forall ((arg Int))
    (! (=
         (= (in_double_int_range arg) true)
         (= (in_range1
              arg
              (big (- 170141183460469231731687303715884105728))
              (big 170141183460469231731687303715884105727)) true)) :pattern (
    (in_double_int_range
      arg)) )))

;; big
(declare-fun big1 ((_ BitVec 128)) Int)

;; big__function_guard
(declare-fun big__function_guard1 (Int
  (_ BitVec 128)) Bool)

(declare-sort uns128 0)

(declare-const attr__ATTRIBUTE_MODULUS (_ BitVec 128))

;; bool_eq
(define-fun bool_eq3 ((x (_ BitVec 128)) (y (_ BitVec 128))) Bool
  (ite (= x y) true false))

;; attr__ATTRIBUTE_IMAGE
(declare-fun attr__ATTRIBUTE_IMAGE1 ((_ BitVec 128)) us_image)

;; attr__ATTRIBUTE_VALUE__pre_check
(declare-fun attr__ATTRIBUTE_VALUE__pre_check1 (us_image) Bool)

;; attr__ATTRIBUTE_VALUE
(declare-fun attr__ATTRIBUTE_VALUE1 (us_image) (_ BitVec 128))

;; user_eq
(declare-fun user_eq2 (uns128
  uns128) Bool)

(declare-const dummy2 uns128)

(declare-datatypes ((uns128__ref 0))
  (((uns128__refqtmk (uns128__content uns128)))))

;; uns128__ref_uns128__content__projection
(define-fun uns128__ref_uns128__content__projection ((a uns128__ref)) uns128
  (uns128__content a))

;; dynamic_invariant
(define-fun dynamic_invariant1 ((temp___expr_282 (_ BitVec 128)) (temp___is_init_278 Bool) (temp___skip_constant_279 Bool) (temp___do_toplevel_280 Bool) (temp___do_typ_inv_281 Bool)) Bool
  true)

;; big__post_axiom
(assert true)

;; big__def_axiom
(assert
  (forall ((arg (_ BitVec 128)))
    (! (=>
         (dynamic_invariant1 arg true true true true)
         (= (big1 arg) (bv2nat arg))) :pattern ((big1 arg)) )))

;; to_int__function_guard
(declare-fun to_int__function_guard (Int
  (_ BitVec 128)) Bool)

;; to_int__post_axiom
(assert
  (forall ((s (_ BitVec 128)))
    (! (=>
         (dynamic_invariant1 s true true true true)
         (let ((result (uc_to_int s)))
           (=>
             (to_int__function_guard result s)
             (dynamic_invariant result true false true true)))) :pattern (
    (uc_to_int
      s)) )))

(declare-const a (_ BitVec 128))

(declare-const r Int)

(declare-sort tinteger_128B 0)

;; tinteger_128B'int
(declare-fun tinteger_128Bqtint (tinteger_128B) Int)

;; tinteger_128B'axiom
(assert
  (forall ((i tinteger_128B))
    (and
      (<= (- 170141183460469231731687303715884105728) (tinteger_128Bqtint i))
      (<= (tinteger_128Bqtint i) 170141183460469231731687303715884105727))))

;; in_range
(define-fun in_range2 ((x Int)) Bool
  (and
    (<= (- 170141183460469231731687303715884105728) x)
    (<= x 170141183460469231731687303715884105727)))

;; bool_eq
(define-fun bool_eq4 ((x Int) (y Int)) Bool
  (ite (= x y) true false))

;; attr__ATTRIBUTE_IMAGE
(declare-fun attr__ATTRIBUTE_IMAGE2 (Int) us_image)

;; attr__ATTRIBUTE_VALUE__pre_check
(declare-fun attr__ATTRIBUTE_VALUE__pre_check2 (us_image) Bool)

;; attr__ATTRIBUTE_VALUE
(declare-fun attr__ATTRIBUTE_VALUE2 (us_image) Int)

;; user_eq
(declare-fun user_eq3 (tinteger_128B
  tinteger_128B) Bool)

(declare-const dummy3 tinteger_128B)

(declare-datatypes ((tinteger_128B__ref 0))
  (((tinteger_128B__refqtmk (tinteger_128B__content tinteger_128B)))))

;; tinteger_128B__ref_tinteger_128B__content__projection
(define-fun tinteger_128B__ref_tinteger_128B__content__projection ((a1 tinteger_128B__ref)) tinteger_128B
  (tinteger_128B__content a1))

;; dynamic_invariant
(define-fun dynamic_invariant2 ((temp___expr_256 Int) (temp___is_init_252 Bool) (temp___skip_constant_253 Bool) (temp___do_toplevel_254 Bool) (temp___do_typ_inv_255 Bool)) Bool
  true)

;; in_range__post_axiom
(assert true)

;; in_range__def_axiom
(assert
  (forall ((arg Int))
    (forall ((low Int) (high Int))
      (! (=
           (= (in_range1 arg low high) true)
           (and (<= low arg) (<= arg high))) :pattern ((in_range1
                                                         arg
                                                         low
                                                         high)) ))))

;; r__def_axiom
(assert
  (and
    (to_int__function_guard (uc_to_int a) a)
    (= r (ite (= a #x80000000000000000000000000000000)
           (- 170141183460469231731687303715884105728)
           (- (uc_to_int a))))))

;; Assume
(assert (dynamic_invariant1 a true false true true))

;; Assume
(assert (= (in_double_int_range (- (big1 a))) true))

(declare-const ada___system__arith_128__impl__to_neg_int__result Int)

(declare-const ada___system__arith_128__impl__to_neg_int__r__assume Int)

;; H
(assert
  (ite (= a #x80000000000000000000000000000000)
    (= ada___system__arith_128__impl__to_neg_int__r__assume (- 170141183460469231731687303715884105728))
    (let ((o a))
      (let ((o1 (uc_to_int o)))
        (and
          (and
            (to_int__function_guard o1 o)
            (dynamic_invariant o1 true false true true))
          (let ((o2 (- o1)))
            (and
              (= ada___system__arith_128__impl__to_neg_int__r__assume o2)
              (in_range2 o2))))))))

;; Assume
(assert (= ada___system__arith_128__impl__to_neg_int__r__assume r))

;; Assume
(assert (dynamic_invariant r true false true true))

(declare-const spark__branch Bool)

;; H
(assert (= spark__branch (ite (<= r 0) true false)))

;; H
(assert (= spark__branch true))

;; H
(assert (= ada___system__arith_128__impl__to_neg_int__result r))

;; Goal def'vc
;; File "s-aridou.adb", line 162, characters 0-0
(assert
  (not
  (= (big ada___system__arith_128__impl__to_neg_int__result) (- (big1 a)))))

(check-sat)
(exit)
